50
8716

40 602
719 917
212 457
811 753
680 752
863 717
197 433
855 802
138 593
317 53
621 655
553 519
890 615
143 424
15 385
468 883
270 207
57 368
645 476
654 143
721 429
775 548
953 204
819 859
395 590
275 246
953 326
113 810
227 914
268 600
167 650
244 889
403 759
852 546
275 989
207 403
766 884
683 410
192 194
981 299
195 269
969 219
109 286
549 805
785 18
99 631
716 934
88 27
601 665
442 400
